3 40 1 10
13 9 16 19 7 9 3 19 8 1 16 11 10 7 1 8 14 9 6 17 11 14 9 17 4 19 8 7 6 7 11 8 3 20 20 18 17 9 15 11 
4.01 12.3 15.25 14.42 15.57 7.67 1.88 12.58 4.03 2.58 2.12 2.89 4.7 10.98 12.66 3.33 15.74 13.95 8.5 3.75 6.75 5.99 11.89 3.41 13.8 13.48 8.18 10.5 7.84 13.51 6.48 3.81 7.04 0.5 7.01 9 1.85 2.87 14.95 13 
8 8 8 8 8 8 8 8 8 8 8 8 8 8 8 8 8 8 8 8 8 8 8 8 8 8 8 8 8 8 8 8 8 8 8 8 8 8 8 8 
8.33 6.4 11.02 1.66 7.27 12.76 12.49 8.46 3.57 15.91 13.55 11.18 15.34 1.83 2.09 4.07 7 1.98 0.65 5.27 12.41 9.47 8.37 7.32 0.52 13.44 14.5 5.32 14.79 0.76 4.48 8.08 11.84 9.02 1.18 12.2 10.47 12.39 5.03 0.84 
1 1 1 1 1 1 1 1 1 1 1 1 1 1 1 1 1 1 1 1 1 1 1 1 1 1 1 1 1 1 1 1 1 1 1 1 1 1 1 1 
1 1 1 1 1 1 1 1 1 1 1 1 1 1 1 1 1 1 1 1 1 1 1 1 1 1 1 1 1 1 1 1 1 1 1 1 1 1 1 1 
1 1 1 1 1 1 1 1 1 1 1 1 1 1 1 1 1 1 1 1 1 1 1 1 1 1 1 1 1 1 1 1 1 1 1 1 1 1 1 1 
0.01 0.01 0.01 0.01 0.01 0.01 0.01 0.01 0.01 0.01 0.01 0.01 0.01 0.01 0.01 0.01 0.01 0.01 0.01 0.01 0.01 0.01 0.01 0.01 0.01 0.01 0.01 0.01 0.01 0.01 0.01 0.01 0.01 0.01 0.01 0.01 0.01 0.01 0.01 0.01 
0.02 0.02 0.02 0.02 0.02 0.02 0.02 0.02 0.02 0.02 0.02 0.02 0.02 0.02 0.02 0.02 0.02 0.02 0.02 0.02 0.02 0.02 0.02 0.02 0.02 0.02 0.02 0.02 0.02 0.02 0.02 0.02 0.02 0.02 0.02 0.02 0.02 0.02 0.02 0.02 
1 1 1 1 1 1 1 1 1 1 1 1 1 1 1 1 1 1 1 1 1 1 1 1 1 1 1 1 1 1 1 1 1 1 1 1 1 1 1 1 
